
        $ From http://www.csplib.org/Problems/prob009/data/helmut.pdf
        $ Problem number 8
        $ Sequence length : 22
        language ESSENCE' 1.0
        letting sizemaster be 172
        letting sizes be sequence(1,2,3,4,9,11,13,16,17,18,19,22,24,33,36,38,39,42,44,53,75,97)
        